1 -1 2 0
1 -1 -3 0
1 -1 -4 0
1 1 5 0
1 -2 6 0
1 2 3 0
1 2 4 0
1 -2 5 0
1 2 7 0
1 8 -9 0
1 8 -10 0
1 8 -3 0
1 8 -4 0
1 8 -11 0
1 8 12 0
1 -8 5 0
1 13 9 0
1 -13 3 0
1 -13 -4 0
1 13 14 0
1 -13 -11 0
1 13 8 0
1 -13 -5 0
1 4 15 0
1 4 -16 0
1 4 17 0
1 4 -7 0
1 7 18 0
1 7 15 0
1 -7 -19 0
1 7 20 0
1 -7 -13 0
1 -7 2 0
1 7 4 0
1 7 21 0
1 -7 -17 0
1 7 8 0
1 7 -1 0
1 -3 22 0
1 3 23 0
1 -3 -2 0
1 -3 -21 0
1 -3 -24 0
1 -3 1 0
1 -5 15 0
1 5 -22 0
1 5 -23 0
1 -5 -13 0
1 5 -2 0
1 5 -3 0
1 5 21 0
1 -5 -25 0
1 5 -8 0
1 5 -1 0
1 -5 -26 0
1 -27 9 0
1 -27 10 0
1 -27 -20 0
1 -27 -14 0
1 -27 7 0
1 -20 -9 0
1 -20 -10 0
1 20 -23 0
1 20 -4 0
1 20 7 0
1 17 -9 0
1 17 -10 0
1 17 19 0
1 -17 -28 0
1 17 11 0
1 17 -25 0
1 -19 -9 0
1 19 10 0
1 -19 -29 0
1 19 -28 0
1 19 4 0
1 -19 14 0
1 19 11 0
1 19 30 0
1 -19 -31 0
1 -19 -7 0
1 11 -32 0
1 11 -33 0
1 11 -10 0
1 -11 19 0
1 11 20 0
1 -11 13 0
1 -11 -34 0
1 11 35 0
1 11 -17 0
1 -11 -27 0
1 11 8 0
1 -11 36 0
1 10 -32 0
1 -10 -20 0
1 10 -13 0
1 -10 -34 0
1 10 11 0
1 10 -17 0
1 -10 27 0
1 -10 8 0
1 -10 -36 0
1 -14 9 0
1 -14 15 0
1 -14 19 0
1 -14 -20 0
1 -14 13 0
1 -14 37 0
1 14 38 0
1 14 21 0
1 -14 -17 0
1 14 -27 0
1 14 -8 0
1 9 -39 0
1 9 -20 0
1 -9 -37 0
1 -9 17 0
1 9 36 0
1 35 33 0
1 35 29 0
1 -35 -28 0
1 35 -11 0
1 -35 30 0
1 35 31 0
1 -33 10 0
1 -33 -15 0
1 33 29 0
1 33 28 0
1 33 35 0
1 33 -11 0
1 -33 -31 0
1 34 32 0
1 -34 -10 0
1 -34 11 0
1 -34 31 0
1 -32 39 0
1 -32 -29 0
1 -32 28 0
1 -32 -34 0
1 32 -11 0
1 -32 30 0
1 31 -32 0
1 -31 33 0
1 31 -19 0
1 -31 -28 0
1 -31 -40 0
1 31 -34 0
1 -31 -17 0
1 31 -41 0
1 28 -32 0
1 -28 19 0
1 28 -42 0
1 -28 -40 0
1 28 35 0
1 -28 31 0
1 28 43 0
1 30 32 0
1 -30 -33 0
1 30 -19 0
1 30 -29 0
1 30 40 0
1 -30 37 0
1 -30 35 0
1 -30 -44 0
1 -30 36 0
1 29 -32 0
1 29 33 0
1 -29 19 0
1 -29 -45 0
1 29 -37 0
1 -29 -34 0
1 29 -35 0
1 -29 17 0
1 -29 -30 0
1 -29 -43 0
1 29 46 0
1 29 36 0
1 -47 -48 0
1 47 -49 0
1 47 -6 0
1 -47 50 0
1 -47 -51 0
1 47 1 0
1 47 52 0
1 6 -49 0
1 6 2 0
1 -6 53 0
1 -6 50 0
1 6 51 0
1 6 -47 0
1 12 -48 0
1 12 49 0
1 -12 50 0
1 -12 -51 0
1 -12 -54 0
1 12 55 0
1 56 48 0
1 56 -49 0
1 -56 57 0
1 56 58 0
1 -56 13 0
1 56 50 0
1 -56 59 0
1 49 -22 0
1 49 -60 0
1 -49 -23 0
1 49 -56 0
1 49 -61 0
1 49 25 0
1 -49 24 0
1 49 -12 0
1 51 -49 0
1 51 -62 0
1 -51 -22 0
1 -51 -23 0
1 -51 -6 0
1 51 61 0
1 -51 25 0
1 -51 24 0
1 -51 -47 0
1 48 -63 0
1 -48 64 0
1 48 65 0
1 -48 56 0
1 48 -6 0
1 48 50 0
1 -48 66 0
1 48 67 0
1 48 47 0
1 50 -64 0
1 50 65 0
1 50 -56 0
1 -50 -68 0
1 -50 61 0
1 50 -67 0
1 50 12 0
1 -50 47 0
1 -24 49 0
1 -24 -23 0
1 -24 -58 0
1 -24 -3 0
1 24 -51 0
1 24 -54 0
1 -24 59 0
1 -24 -27 0
1 -23 -49 0
1 23 -57 0
1 23 20 0
1 23 -58 0
1 23 65 0
1 -23 3 0
1 -23 -51 0
1 23 54 0
1 23 59 0
1 -23 -24 0
1 23 -5 0
1 25 49 0
1 -25 -22 0
1 -25 57 0
1 25 69 0
1 25 -51 0
1 -25 54 0
1 25 -17 0
1 -25 59 0
1 25 -70 0
1 25 -71 0
1 -25 -5 0
1 -22 -59 0
1 22 49 0
1 22 -19 0
1 22 57 0
1 22 64 0
1 -22 69 0
1 -22 -72 0
1 22 3 0
1 22 -51 0
1 22 -54 0
1 22 70 0
1 -22 -5 0
1 -58 -73 0
1 58 59 0
1 -58 -39 0
1 58 -15 0
1 -58 23 0
1 58 -74 0
1 -58 38 0
1 58 -21 0
1 58 25 0
1 58 -24 0
1 58 12 0
1 59 -39 0
1 -59 -22 0
1 59 58 0
1 59 -74 0
1 59 -38 0
1 59 -21 0
1 -59 25 0
1 -59 75 0
1 -59 24 0
1 59 12 0
1 -57 73 0
1 -57 -76 0
1 -57 -62 0
1 57 22 0
1 -57 77 0
1 -57 56 0
1 -57 74 0
1 57 -54 0
1 57 -61 0
1 -57 -24 0
1 54 -76 0
1 54 62 0
1 -54 -22 0
1 -54 23 0
1 54 56 0
1 -54 78 0
1 54 61 0
1 54 24 0
1 54 12 0
1 21 9 0
1 -21 -72 0
1 -21 -3 0
1 21 -4 0
1 21 -14 0
1 -21 61 0
1 -21 70 0
1 21 -71 0
1 21 7 0
1 15 9 0
1 -15 -33 0
1 15 62 0
1 -15 -58 0
1 15 -69 0
1 -15 72 0
1 15 3 0
1 15 4 0
1 15 -14 0
1 -15 -21 0
1 -15 5 0
1 -15 7 0
1 -38 -18 0
1 -38 -9 0
1 38 39 0
1 38 58 0
1 -38 -69 0
1 -38 79 0
1 -38 -16 0
1 -38 14 0
1 -38 -78 0
1 -38 -70 0
1 38 -71 0
1 -38 -26 0
1 -39 18 0
1 -39 9 0
1 -39 -76 0
1 39 58 0
1 39 -72 0
1 39 -79 0
1 39 16 0
1 -39 14 0
1 -39 -59 0
1 -39 -71 0
1 39 -26 0
1 72 -39 0
1 -72 -15 0
1 -72 -22 0
1 -72 80 0
1 -72 -45 0
1 -72 81 0
1 -72 -37 0
1 72 38 0
1 72 -21 0
1 -72 71 0
1 72 -82 0
1 -72 46 0
1 -72 36 0
1 -71 -39 0
1 71 -15 0
1 71 -22 0
1 71 80 0
1 -71 -45 0
1 71 37 0
1 71 -83 0
1 71 38 0
1 71 25 0
1 -71 82 0
1 -71 -46 0
1 -71 -36 0
1 69 73 0
1 -69 -39 0
1 69 84 0
1 -69 -80 0
1 69 85 0
1 69 74 0
1 -69 38 0
1 69 21 0
1 -69 25 0
1 -69 70 0
1 69 -82 0
1 70 -73 0
1 70 -15 0
1 -70 69 0
1 70 80 0
1 -70 -85 0
1 -70 74 0
1 -70 -38 0
1 70 21 0
1 -70 25 0
1 -70 -82 0
1 70 -86 0
1 37 -18 0
1 37 -10 0
1 37 -29 0
1 37 74 0
1 37 -14 0
1 -37 -16 0
1 37 -30 0
1 -37 -71 0
1 37 26 0
1 36 -73 0
1 -36 9 0
1 36 10 0
1 36 29 0
1 -36 72 0
1 36 -79 0
1 -36 -37 0
1 -36 16 0
1 -36 -14 0
1 -36 -71 0
1 -36 26 0
1 45 18 0
1 45 -87 0
1 -45 -88 0
1 -45 -29 0
1 -45 -72 0
1 45 85 0
1 45 -79 0
1 -45 89 0
1 45 -30 0
1 45 -46 0
1 -46 18 0
1 -46 87 0
1 46 88 0
1 -46 -45 0
1 -46 79 0
1 -46 16 0
1 46 89 0
1 46 -71 0
1 -46 86 0
1 -16 -18 0
1 16 39 0
1 16 90 0
1 16 -91 0
1 -16 40 0
1 -16 45 0
1 16 -37 0
1 -16 4 0
1 16 92 0
1 -16 -38 0
1 16 93 0
1 -16 -94 0
1 -16 43 0
1 -18 -39 0
1 -18 -91 0
1 18 -45 0
1 -18 -93 0
1 -18 94 0
1 -18 -43 0
1 18 46 0
1 -18 -36 0
1 -79 -39 0
1 -79 -90 0
1 -79 95 0
1 79 80 0
1 -79 -45 0
1 79 3 0
1 -79 96 0
1 79 82 0
1 -79 36 0
1 26 -39 0
1 -26 90 0
1 26 95 0
1 -26 -80 0
1 26 45 0
1 26 79 0
1 -26 37 0
1 -26 38 0
1 -26 -5 0
1 26 93 0
1 -26 -97 0
1 26 82 0
1 26 -46 0
1 -26 -98 0
1 26 36 0
1 40 -87 0
1 40 -88 0
1 40 28 0
1 40 16 0
1 40 99 0
1 40 -89 0
1 43 18 0
1 -43 88 0
1 43 28 0
1 -43 -16 0
1 43 89 0
1 43 30 0
1 -43 -31 0
1 -43 -82 0
1 91 18 0
1 91 -87 0
1 -91 -94 0
1 -91 95 0
1 91 -16 0
1 -91 -99 0
1 91 89 0
1 -91 -44 0
1 91 41 0
1 94 -87 0
1 -94 -88 0
1 94 42 0
1 -94 91 0
1 94 -16 0
1 94 -99 0
1 94 -44 0
1 94 -41 0
1 94 97 0
1 89 -100 0
1 89 88 0
1 -89 91 0
1 89 -40 0
1 -89 101 0
1 -89 11 0
1 89 102 0
1 89 -94 0
1 -89 -43 0
1 -88 -10 0
1 -88 -100 0
1 88 -103 0
1 -88 104 0
1 -88 105 0
1 -88 -91 0
1 -88 -40 0
1 88 45 0
1 -88 101 0
1 88 -106 0
1 -88 -102 0
1 -88 94 0
1 -88 43 0
1 88 -46 0
1 -99 -107 0
1 99 -90 0
1 -99 91 0
1 -99 -40 0
1 -99 -45 0
1 99 101 0
1 99 108 0
1 -99 109 0
1 -99 93 0
1 -99 43 0
1 87 9 0
1 -87 110 0
1 87 100 0
1 -87 -107 0
1 -87 -90 0
1 87 -40 0
1 87 -101 0
1 -87 -99 0
1 87 -109 0
1 87 93 0
1 -87 94 0
1 -87 -46 0
1 -105 111 0
1 105 42 0
1 105 44 0
1 105 -89 0
1 105 41 0
1 -102 -88 0
1 102 -105 0
1 102 -89 0
1 102 44 0
1 102 -93 0
1 -102 41 0
1 -104 -88 0
1 104 -111 0
1 104 -107 0
1 -104 -106 0
1 -104 -89 0
1 104 -44 0
1 106 88 0
1 106 111 0
1 -106 42 0
1 106 -89 0
1 -106 -41 0
1 -41 104 0
1 41 105 0
1 41 -112 0
1 -41 -106 0
1 41 -102 0
1 41 -94 0
1 -42 113 0
1 42 -104 0
1 -42 28 0
1 -42 -105 0
1 42 114 0
1 42 112 0
1 42 102 0
1 42 94 0
1 42 41 0
1 44 113 0
1 -44 115 0
1 44 100 0
1 44 104 0
1 -44 111 0
1 -44 -105 0
1 44 -101 0
1 44 -116 0
1 44 -94 0
1 -111 113 0
1 111 100 0
1 -111 29 0
1 111 -104 0
1 111 117 0
1 111 -105 0
1 -111 91 0
1 -111 -112 0
1 111 118 0
1 111 -44 0
1 -111 101 0
1 -111 106 0
1 111 102 0
1 -52 119 0
1 -52 53 0
1 -52 120 0
1 52 121 0
1 53 119 0
1 -53 122 0
1 -53 -120 0
1 -53 -121 0
1 55 119 0
1 55 -123 0
1 55 124 0
1 -55 -120 0
1 -55 121 0
1 -55 -125 0
1 -55 12 0
1 -55 -126 0
1 -127 122 0
1 -127 56 0
1 127 -126 0
1 -127 -55 0
1 121 -122 0
1 121 65 0
1 -121 127 0
1 -121 53 0
1 121 -128 0
1 121 67 0
1 122 -121 0
1 -122 64 0
1 122 -65 0
1 122 127 0
1 122 53 0
1 122 66 0
1 -122 67 0
1 -122 -52 0
1 -120 -129 0
1 -120 119 0
1 -120 127 0
1 -120 -55 0
1 -120 52 0
1 -119 130 0
1 -119 -127 0
1 119 52 0
1 67 122 0
1 67 -65 0
1 -67 123 0
1 -67 -124 0
1 67 -121 0
1 67 -24 0
1 -67 125 0
1 67 126 0
1 65 -48 0
1 -65 122 0
1 -65 -23 0
1 65 123 0
1 65 125 0
1 65 -50 0
1 65 -121 0
1 65 -67 0
1 -65 126 0
1 66 131 0
1 -66 -48 0
1 66 -64 0
1 -66 -122 0
1 -66 -123 0
1 -66 -124 0
1 66 -132 0
1 66 133 0
1 -66 -25 0
1 66 121 0
1 66 125 0
1 -66 126 0
1 64 -131 0
1 64 -48 0
1 64 121 0
1 64 -22 0
1 -64 -122 0
1 64 -124 0
1 64 132 0
1 64 -66 0
1 -64 -126 0
1 126 134 0
1 126 76 0
1 -126 -64 0
1 -126 127 0
1 126 -135 0
1 -126 78 0
1 126 -61 0
1 -126 -66 0
1 126 67 0
1 -126 55 0
1 126 136 0
1 124 -76 0
1 124 62 0
1 124 -64 0
1 -124 -65 0
1 124 -127 0
1 -124 -137 0
1 124 -78 0
1 -124 61 0
1 124 -126 0
1 124 66 0
1 124 -67 0
1 124 55 0
1 125 -134 0
1 125 64 0
1 -125 -65 0
1 125 -123 0
1 125 -135 0
1 -125 67 0
1 -125 138 0
1 125 55 0
1 123 64 0
1 -123 139 0
1 123 125 0
1 123 66 0
1 -123 55 0
1 -61 -131 0
1 -61 -48 0
1 -61 49 0
1 -61 62 0
1 -61 -57 0
1 -61 124 0
1 61 133 0
1 -61 -51 0
1 -61 21 0
1 61 -126 0
1 61 140 0
1 -62 131 0
1 62 -48 0
1 -62 15 0
1 -62 -57 0
1 -62 -132 0
1 -62 50 0
1 62 -51 0
1 62 -54 0
1 -62 61 0
1 62 -126 0
1 -62 -140 0
1 -78 -131 0
1 -78 -76 0
1 -78 60 0
1 78 -57 0
1 -78 68 0
1 78 38 0
1 78 141 0
1 -78 54 0
1 78 -126 0
1 76 -131 0
1 76 39 0
1 76 -63 0
1 -76 60 0
1 -76 -57 0
1 76 -124 0
1 76 132 0
1 76 68 0
1 76 78 0
1 76 54 0
1 -131 -73 0
1 131 142 0
1 131 76 0
1 131 -62 0
1 131 -64 0
1 131 -143 0
1 131 -85 0
1 -131 -133 0
1 131 -78 0
1 -131 -61 0
1 131 66 0
1 -131 144 0
1 131 -86 0
1 -133 73 0
1 -133 131 0
1 -133 -76 0
1 -133 -62 0
1 -133 64 0
1 133 143 0
1 -133 85 0
1 -133 -74 0
1 133 -66 0
1 -133 144 0
1 -133 -86 0
1 140 134 0
1 140 -76 0
1 140 -62 0
1 -140 145 0
1 -140 64 0
1 -140 -132 0
1 140 146 0
1 -140 135 0
1 140 -78 0
1 -140 -61 0
1 140 66 0
1 -140 -144 0
1 132 134 0
1 132 -76 0
1 132 62 0
1 -132 -64 0
1 132 143 0
1 -132 147 0
1 132 -146 0
1 132 135 0
1 132 78 0
1 -132 61 0
1 -132 66 0
1 -132 -144 0
1 -132 -148 0
1 -74 131 0
1 74 58 0
1 74 -69 0
1 -74 133 0
1 74 -37 0
1 -74 -135 0
1 74 -68 0
1 74 54 0
1 -74 -59 0
1 -74 -70 0
1 73 -134 0
1 73 60 0
1 73 57 0
1 -73 -69 0
1 -73 133 0
1 -73 74 0
1 73 -70 0
1 73 36 0
1 -85 -131 0
1 85 60 0
1 -85 149 0
1 85 133 0
1 85 146 0
1 85 -68 0
1 85 -141 0
1 -85 150 0
1 -85 75 0
1 85 70 0
1 85 -86 0
1 -86 131 0
1 -86 -63 0
1 -86 -85 0
1 86 150 0
1 -86 -75 0
1 -86 -46 0
1 86 148 0
1 60 -73 0
1 60 -76 0
1 60 -151 0
1 60 95 0
1 60 80 0
1 60 85 0
1 -60 74 0
1 60 152 0
1 60 -97 0
1 -60 -82 0
1 -141 73 0
1 141 60 0
1 -141 -95 0
1 -141 80 0
1 141 -85 0
1 141 51 0
1 141 -78 0
1 141 -153 0
1 -141 -152 0
1 141 97 0
1 141 82 0
1 141 86 0
1 63 73 0
1 63 76 0
1 63 154 0
1 -63 -155 0
1 -63 156 0
1 -63 143 0
1 63 85 0
1 63 -68 0
1 63 78 0
1 63 152 0
1 63 157 0
1 -68 -73 0
1 68 -155 0
1 -68 -156 0
1 -68 143 0
1 -68 85 0
1 -68 -74 0
1 68 -158 0
1 -68 152 0
1 68 157 0
1 -68 -86 0
1 80 -149 0
1 -80 69 0
1 -80 40 0
1 80 -72 0
1 -80 -143 0
1 80 79 0
1 -80 -141 0
1 80 150 0
1 80 -71 0
1 80 82 0
1 82 -60 0
1 82 77 0
1 82 -149 0
1 82 -69 0
1 -82 -71 0
1 82 72 0
1 82 80 0
1 -82 -79 0
1 -82 141 0
1 -82 -150 0
1 -82 75 0
1 82 -144 0
1 -95 -60 0
1 95 159 0
1 -95 77 0
1 95 149 0
1 95 -156 0
1 -95 -79 0
1 -95 141 0
1 95 -150 0
1 -95 75 0
1 -97 60 0
1 97 77 0
1 97 -149 0
1 -97 -95 0
1 -97 -81 0
1 97 -79 0
1 -97 -141 0
1 97 -75 0
1 97 94 0
1 -97 159 0
1 -97 157 0
1 149 75 0
1 149 107 0
1 -149 90 0
1 -149 160 0
1 149 -80 0
1 -149 -161 0
1 -149 109 0
1 149 97 0
1 -149 -86 0
1 -75 162 0
1 -75 107 0
1 -75 -90 0
1 75 149 0
1 75 95 0
1 75 -80 0
1 -75 85 0
1 75 161 0
1 -75 109 0
1 75 -59 0
1 -75 93 0
1 -75 163 0
1 -75 -82 0
1 -77 -162 0
1 -77 57 0
1 -77 164 0
1 77 155 0
1 -77 -80 0
1 -77 -85 0
1 -77 161 0
1 -77 165 0
1 -77 -82 0
1 -77 -86 0
1 -150 -162 0
1 -150 77 0
1 -150 155 0
1 -150 -85 0
1 150 54 0
1 -150 -165 0
1 150 152 0
1 -150 -97 0
1 -90 -18 0
1 -90 87 0
1 90 105 0
1 -90 -149 0
1 -90 155 0
1 90 -84 0
1 -90 -79 0
1 90 99 0
1 90 -93 0
1 90 -159 0
1 90 -26 0
1 93 18 0
1 -93 -149 0
1 93 -79 0
1 -93 -16 0
1 -93 159 0
1 -93 26 0
1 107 -166 0
1 -107 87 0
1 -107 104 0
1 -107 -164 0
1 -107 81 0
1 -107 75 0
1 107 159 0
1 107 -83 0
1 107 -98 0
1 -109 87 0
1 -109 -84 0
1 -109 81 0
1 -109 -96 0
1 109 -92 0
1 -109 -99 0
1 109 106 0
1 -109 165 0
1 -109 -75 0
1 109 -83 0
1 109 98 0
1 -81 115 0
1 -81 -107 0
1 81 -90 0
1 81 -95 0
1 81 -72 0
1 81 -118 0
1 81 101 0
1 81 109 0
1 81 97 0
1 81 83 0
1 83 167 0
1 -83 107 0
1 -83 -90 0
1 -83 95 0
1 -83 168 0
1 83 -118 0
1 -83 101 0
1 -83 93 0
1 83 -97 0
1 83 169 0
1 84 167 0
1 84 170 0
1 -84 -162 0
1 -84 107 0
1 84 69 0
1 -84 -168 0
1 84 -171 0
1 84 -161 0
1 -159 -167 0
1 -159 -170 0
1 159 -107 0
1 159 -90 0
1 159 -95 0
1 -159 84 0
1 -159 -168 0
1 -159 171 0
1 -159 -109 0
1 159 70 0
1 100 166 0
1 -100 87 0
1 -100 162 0
1 100 111 0
1 100 81 0
1 -100 -96 0
1 -100 92 0
1 100 101 0
1 100 99 0
1 -100 83 0
1 100 98 0
1 101 -111 0
1 -101 -96 0
1 -101 -92 0
1 -101 161 0
1 101 -89 0
1 -115 170 0
1 -115 96 0
1 -115 -118 0
1 -115 108 0
1 115 44 0
1 115 83 0
1 -115 98 0
1 118 -115 0
1 118 -110 0
1 118 111 0
1 118 -81 0
1 118 -96 0
1 118 171 0
1 118 92 0
1 118 -108 0
1 118 44 0
1 -118 -83 0
1 -118 -98 0
1 92 -113 0
1 92 -166 0
1 -92 115 0
1 -92 100 0
1 -92 107 0
1 92 172 0
1 -92 173 0
1 92 -112 0
1 -92 -118 0
1 -92 -16 0
1 92 101 0
1 -92 -109 0
1 -92 174 0
1 92 175 0
1 166 113 0
1 -166 18 0
1 166 -115 0
1 166 107 0
1 -166 172 0
1 -166 118 0
1 166 92 0
1 -96 -167 0
1 -96 -115 0
1 -96 107 0
1 96 172 0
1 96 -176 0
1 96 168 0
1 -96 101 0
1 96 -174 0
1 96 -98 0
1 96 177 0
1 -98 167 0
1 -98 115 0
1 -98 -100 0
1 98 107 0
1 98 172 0
1 98 -176 0
1 -98 168 0
1 -98 96 0
1 98 101 0
1 98 -109 0
1 -98 177 0
1 113 -166 0
1 -113 -110 0
1 -113 103 0
1 113 -111 0
1 -113 -42 0
1 -113 112 0
1 -113 92 0
1 -113 108 0
1 113 178 0
1 113 -44 0
1 -112 113 0
1 -112 -166 0
1 112 -103 0
1 112 42 0
1 112 -92 0
1 112 -108 0
1 -112 178 0
1 112 44 0
1 175 -166 0
1 175 -103 0
1 175 117 0
1 175 -114 0
1 175 173 0
1 175 -92 0
1 175 -116 0
1 -175 -179 0
1 -175 -177 0
1 -173 -110 0
1 -173 103 0
1 -173 117 0
1 -173 176 0
1 -173 92 0
1 173 108 0
1 -173 116 0
1 -173 175 0
1 -178 -113 0
1 178 180 0
1 -178 112 0
1 178 -118 0
1 178 -89 0
1 -178 -181 0
1 178 -182 0
1 -178 175 0
1 -103 -113 0
1 103 115 0
1 -103 183 0
1 103 -180 0
1 103 -112 0
1 -103 118 0
1 -103 -178 0
1 -103 181 0
1 -103 -182 0
1 103 -175 0
1 -108 115 0
1 -108 -110 0
1 108 173 0
1 108 -112 0
1 108 118 0
1 108 99 0
1 108 -184 0
1 108 -175 0
1 -110 113 0
1 -110 -185 0
1 110 172 0
1 -110 112 0
1 -110 108 0
1 110 184 0
1 110 174 0
1 110 -175 0
1 182 -117 0
1 -182 -180 0
1 -182 178 0
1 182 -174 0
1 180 -103 0
1 -180 -117 0
1 180 114 0
1 -180 172 0
1 180 -178 0
1 180 -116 0
1 180 -179 0
1 181 -103 0
1 -181 -183 0
1 181 116 0
1 181 184 0
1 -183 117 0
1 -183 114 0
1 183 -178 0
1 183 116 0
1 -183 -181 0
1 -179 114 0
1 179 -180 0
1 179 -173 0
1 -179 41 0
1 179 181 0
1 -179 -182 0
1 179 -175 0
1 -114 -179 0
1 -114 42 0
1 -114 -183 0
1 114 -173 0
1 114 -181 0
1 -114 -182 0
1 114 -175 0
1 116 117 0
1 -116 -180 0
1 116 173 0
1 -116 181 0
1 116 -182 0
1 -116 -175 0
1 117 183 0
1 -117 -173 0
1 -117 116 0
1 -117 -181 0
1 117 182 0
1 -117 175 0
1 -135 -134 0
1 135 -130 0
1 -135 186 0
1 -135 -123 0
1 135 124 0
1 135 74 0
1 -135 128 0
1 135 125 0
1 135 -140 0
1 -134 -130 0
1 134 -132 0
1 -134 135 0
1 134 -129 0
1 -134 -125 0
1 -134 -126 0
1 -146 130 0
1 146 -186 0
1 146 139 0
1 -146 -137 0
1 146 85 0
1 -146 -129 0
1 146 -128 0
1 -146 -138 0
1 -146 -136 0
1 146 -140 0
1 146 148 0
1 -148 130 0
1 148 -186 0
1 -148 139 0
1 148 137 0
1 148 132 0
1 -148 -146 0
1 -148 138 0
1 -148 136 0
1 -148 140 0
1 148 86 0
1 -128 134 0
1 -128 143 0
1 -128 146 0
1 -128 -135 0
1 -128 121 0
1 128 157 0
1 -186 -187 0
1 186 -146 0
1 -186 -135 0
1 -186 128 0
1 -186 -144 0
1 -186 148 0
1 -129 134 0
1 129 130 0
1 129 -146 0
1 129 135 0
1 -129 188 0
1 130 -119 0
1 -130 189 0
1 130 -148 0
1 -143 -63 0
1 143 186 0
1 143 139 0
1 -143 -137 0
1 143 -80 0
1 -143 136 0
1 143 144 0
1 -144 131 0
1 144 -63 0
1 144 -132 0
1 144 143 0
1 -144 -133 0
1 -144 68 0
1 144 -138 0
1 -144 136 0
1 156 186 0
1 -156 147 0
1 -156 68 0
1 156 -138 0
1 -156 157 0
1 156 145 0
1 -157 -142 0
1 157 186 0
1 -157 137 0
1 157 147 0
1 -157 -190 0
1 157 68 0
1 -157 -97 0
1 -157 -138 0
1 157 -136 0
1 -157 -145 0
1 -136 -164 0
1 136 -155 0
1 -136 156 0
1 -136 137 0
1 136 143 0
1 136 165 0
1 136 -152 0
1 -136 -157 0
1 -136 -144 0
1 -137 -191 0
1 -137 164 0
1 137 -192 0
1 -137 -143 0
1 137 146 0
1 137 -193 0
1 -137 152 0
1 -137 157 0
1 137 -136 0
1 -137 -144 0
1 -137 148 0
1 138 -139 0
1 138 156 0
1 -138 143 0
1 -138 -125 0
1 138 146 0
1 138 193 0
1 138 157 0
1 -138 -194 0
1 -138 -144 0
1 -138 -148 0
1 139 -123 0
1 -139 156 0
1 139 -195 0
1 -139 143 0
1 139 -146 0
1 139 -138 0
1 -139 193 0
1 -139 157 0
1 -139 -144 0
1 -139 148 0
1 155 -142 0
1 155 -63 0
1 155 -77 0
1 155 -90 0
1 155 -190 0
1 -155 -68 0
1 -155 141 0
1 -155 -150 0
1 155 152 0
1 -155 -136 0
1 155 145 0
1 152 -142 0
1 152 -63 0
1 -152 60 0
1 -152 155 0
1 -152 137 0
1 -152 -147 0
1 152 -190 0
1 152 -68 0
1 -152 -141 0
1 152 -150 0
1 152 -136 0
1 164 -142 0
1 -164 154 0
1 164 -151 0
1 -164 107 0
1 164 137 0
1 164 190 0
1 -164 -158 0
1 -164 150 0
1 -164 -165 0
1 164 -136 0
1 165 142 0
1 -165 -77 0
1 -165 164 0
1 165 -147 0
1 165 190 0
1 -165 -158 0
1 165 -153 0
1 -165 109 0
1 165 136 0
1 142 -131 0
1 142 196 0
1 -142 164 0
1 -142 190 0
1 142 161 0
1 142 152 0
1 142 157 0
1 190 170 0
1 190 -164 0
1 190 -156 0
1 -190 197 0
1 -190 -171 0
1 -190 -161 0
1 190 165 0
1 -145 -198 0
1 145 196 0
1 -145 -199 0
1 145 -155 0
1 145 156 0
1 145 200 0
1 -145 -157 0
1 -145 -140 0
1 147 -196 0
1 -147 199 0
1 147 -191 0
1 -147 -164 0
1 -147 155 0
1 -147 132 0
1 147 201 0
1 147 193 0
1 147 165 0
1 -162 142 0
1 162 100 0
1 -162 191 0
1 -162 77 0
1 162 151 0
1 162 -190 0
1 162 153 0
1 -162 150 0
1 162 159 0
1 161 -142 0
1 161 154 0
1 -161 -162 0
1 161 151 0
1 -161 -77 0
1 -161 -149 0
1 161 -84 0
1 -161 -190 0
1 161 193 0
1 -161 -153 0
1 161 -159 0
1 -170 142 0
1 170 -199 0
1 -170 -154 0
1 170 -151 0
1 -170 -160 0
1 -170 -171 0
1 170 158 0
1 -170 -153 0
1 170 -163 0
1 -170 159 0
1 -171 -142 0
1 -171 -170 0
1 171 154 0
1 -171 151 0
1 -171 202 0
1 171 160 0
1 171 -84 0
1 171 190 0
1 -171 -118 0
1 171 200 0
1 -171 -153 0
1 -171 163 0
1 -171 -159 0
1 -151 167 0
1 151 -162 0
1 151 -60 0
1 151 164 0
1 -151 -203 0
1 151 168 0
1 -151 161 0
1 151 153 0
1 151 -177 0
1 -153 162 0
1 -153 -151 0
1 153 -203 0
1 153 -168 0
1 -153 171 0
1 -153 161 0
1 153 141 0
1 -153 165 0
1 153 177 0
1 154 204 0
1 -154 -196 0
1 154 170 0
1 154 -162 0
1 -154 -164 0
1 -154 -203 0
1 154 205 0
1 -154 197 0
1 -154 -158 0
1 154 -161 0
1 158 -196 0
1 -158 170 0
1 -158 -154 0
1 158 -164 0
1 158 -203 0
1 -158 205 0
1 158 -197 0
1 167 113 0
1 167 196 0
1 -167 -202 0
1 -167 -160 0
1 -167 -84 0
1 167 -81 0
1 167 168 0
1 167 96 0
1 167 -159 0
1 167 -83 0
1 167 98 0
1 168 -167 0
1 -168 160 0
1 168 -84 0
1 -168 -112 0
1 -168 96 0
1 -168 197 0
1 -168 -206 0
1 -168 -83 0
1 177 204 0
1 177 -151 0
1 -177 -202 0
1 177 -160 0
1 177 -176 0
1 -177 -206 0
1 177 -163 0
1 -177 207 0
1 -177 169 0
1 177 -175 0
1 -177 -98 0
1 176 151 0
1 176 -202 0
1 -176 -160 0
1 -176 -177 0
1 176 208 0
1 -176 173 0
1 176 209 0
1 -176 205 0
1 -176 96 0
1 176 153 0
1 176 -206 0
1 -176 -163 0
1 176 -207 0
1 176 -169 0
1 -160 -167 0
1 160 -170 0
1 -160 149 0
1 160 -172 0
1 -160 -176 0
1 160 -168 0
1 -160 184 0
1 -160 174 0
1 160 177 0
1 -163 167 0
1 163 -170 0
1 -163 -185 0
1 -163 160 0
1 -163 -172 0
1 163 168 0
1 -163 -171 0
1 163 -75 0
1 -163 -174 0
1 -163 -177 0
1 -202 -167 0
1 202 210 0
1 202 -203 0
1 202 -168 0
1 202 206 0
1 202 211 0
1 -206 -167 0
1 -206 -170 0
1 -206 202 0
1 206 -203 0
1 -174 -110 0
1 -174 -160 0
1 -174 209 0
1 -174 -96 0
1 174 92 0
1 174 108 0
1 -174 163 0
1 -174 -207 0
1 174 169 0
1 -174 98 0
1 172 -180 0
1 172 208 0
1 172 209 0
1 -172 92 0
1 -172 -169 0
1 -172 207 0
1 172 -174 0
1 172 98 0
1 184 -110 0
1 184 185 0
1 -184 160 0
1 184 208 0
1 184 -108 0
1 184 -163 0
1 -184 181 0
1 184 -207 0
1 -184 169 0
1 -185 -110 0
1 -185 183 0
1 -185 -160 0
1 185 -208 0
1 185 -207 0
1 185 -209 0
1 185 108 0
1 -185 -163 0
1 -185 -184 0
1 -209 -185 0
1 -209 81 0
1 209 -176 0
1 209 184 0
1 209 174 0
1 209 -177 0
1 169 185 0
1 -169 -172 0
1 -169 176 0
1 169 -209 0
1 -169 -83 0
1 169 174 0
1 -169 -177 0
1 -208 -185 0
1 -208 84 0
1 -208 -172 0
1 -208 176 0
1 208 184 0
1 208 -174 0
1 208 -177 0
1 -207 185 0
1 207 172 0
1 -207 208 0
1 -207 -176 0
1 -207 -159 0
1 207 -177 0
1 191 162 0
1 -191 187 0
1 -191 139 0
1 -191 137 0
1 191 147 0
1 191 193 0
1 191 212 0
1 -191 -138 0
1 191 -136 0
1 193 191 0
1 193 189 0
1 193 139 0
1 -193 -147 0
1 -193 161 0
1 -193 188 0
1 -193 -212 0
1 -193 138 0
1 193 136 0
1 -193 -145 0
1 -199 170 0
1 199 -189 0
1 -199 -187 0
1 199 -195 0
1 -199 -192 0
1 199 200 0
1 -199 -212 0
1 -199 194 0
1 199 -145 0
1 200 -189 0
1 200 187 0
1 -200 -195 0
1 -200 192 0
1 -200 171 0
1 200 -188 0
1 200 -212 0
1 -200 194 0
1 -200 213 0
1 -200 -145 0
1 212 -204 0
1 212 -196 0
1 -212 -191 0
1 212 187 0
1 212 -205 0
1 -212 -197 0
1 -212 200 0
1 -212 -128 0
1 -187 -204 0
1 -187 -196 0
1 -187 -199 0
1 187 186 0
1 187 205 0
1 -187 197 0
1 -187 200 0
1 -187 193 0
1 -187 212 0
1 188 200 0
1 188 -193 0
1 -188 129 0
1 -189 199 0
1 189 -191 0
1 -189 -188 0
1 189 130 0
1 -189 -200 0
1 -189 193 0
1 -196 142 0
1 196 -187 0
1 196 195 0
1 -196 -192 0
1 -196 147 0
1 196 190 0
1 196 197 0
1 196 -212 0
1 -196 -213 0
1 -196 -145 0
1 197 -154 0
1 -197 -187 0
1 197 -192 0
1 197 147 0
1 197 -190 0
1 197 212 0
1 197 -213 0
1 197 -145 0
1 -204 -198 0
1 204 154 0
1 -204 -195 0
1 204 -201 0
1 204 -214 0
1 -204 158 0
1 204 -212 0
1 -204 -194 0
1 -204 -213 0
1 205 204 0
1 -205 -198 0
1 -205 215 0
1 -205 154 0
1 -205 187 0
1 205 192 0
1 205 176 0
1 205 -201 0
1 -205 -214 0
1 -205 -158 0
1 -205 212 0
1 213 204 0
1 -213 -203 0
1 213 -192 0
1 -213 205 0
1 -213 -197 0
1 213 -200 0
1 -213 -136 0
1 192 -204 0
1 -192 199 0
1 192 200 0
1 192 211 0
1 192 213 0
1 194 204 0
1 194 -196 0
1 -194 -199 0
1 194 205 0
1 -194 200 0
1 194 -138 0
1 -195 -204 0
1 195 -199 0
1 -195 -139 0
1 -195 -205 0
1 195 197 0
1 195 194 0
1 203 198 0
1 203 -215 0
1 203 -154 0
1 -203 151 0
1 203 -202 0
1 -203 -172 0
1 203 -214 0
1 -211 -198 0
1 -211 -215 0
1 211 202 0
1 -211 192 0
1 -211 201 0
1 -211 -206 0
1 -210 198 0
1 210 215 0
1 210 202 0
1 210 -185 0
1 -210 192 0
1 210 201 0
1 -210 214 0
1 210 206 0
1 -210 211 0
1 -210 -213 0
1 -215 204 0
1 215 142 0
1 215 210 0
1 -215 203 0
1 215 205 0
1 -215 -214 0
1 -214 -204 0
1 214 -215 0
1 214 -203 0
1 -214 -205 0
1 -214 -190 0
1 -214 -211 0
1 198 -204 0
1 198 210 0
1 198 -203 0
1 198 205 0
1 198 -211 0
1 201 -198 0
1 -201 -210 0
1 201 203 0
1 201 -147 0
1 201 211 0
